CMD:
./solvers/bin/cadical --plain --no-reduce -t 1600 ./data/cnfs//prodcellp0neg/prodcellp0neg.98.cnf

c --- [ banner ] -------------------------------------------------------------
c 
c CaDiCaL SAT Solver
c Copyright (c) 2016-2024
c A. Biere, M. Fleury, N. Froleyks, K. Fazekas, F. Pollitt, T. Faller
c JKU Linz, University of Freiburg, TU Wien
c 
c Version 2.1.3 5296d3d2a9bf48c154ab2acb5e44625776d821bf
c g++ (Gentoo 12.3.1_p20230526 p2) 12.3.1 20230526 -Wall -Wextra -O3 -DNDEBUG
c Sat Aug 9 07:26:21 PDT 2025 Linux cedar2.int.cedar.computecanada.ca 5.14.0-362.24.2.el9_3.x86_64 x86_64
c 
c --- [ limit ] --------------------------------------------------------------
c 
c setting time limit to 1600 seconds real time (due to '-t 1600')
c 
c --- [ parsing input ] ------------------------------------------------------
c 
c reading DIMACS file from './data/cnfs//prodcellp0neg/prodcellp0neg.98.cnf'
c opening file to read './data/cnfs//prodcellp0neg/prodcellp0neg.98.cnf'
c found 'p cnf 128829 366331' header
c parsed 366331 clauses in 0.06 seconds process time
c 
c --- [ options ] ------------------------------------------------------------
c 
c   --compact=false                (different from default 'true')
c   --decompose=false              (different from default 'true')
c   --deduplicate=false            (different from default 'true')
c   --elim=false                   (different from default 'true')
c   --probe=false                  (different from default 'true')
c   --reduce=false                 (different from default 'true')
c   --subsume=false                (different from default 'true')
c   --ternary=false                (different from default 'true')
c   --transred=false               (different from default 'true')
c   --vivify=false                 (different from default 'true')
c 
c --- [ solving ] ------------------------------------------------------------
c 
c time measured in process time since initialization
c 
c  seconds  reductions  redundant  irredundant
c         MB    restarts       trail       variables
c          level   conflicts       glue         remaining
c 
c *  0.06 51  0 0   0    0    0  0% 0 260020 17081 13%
c {  0.07 51  0 0   0    0    0  0% 0 260020 17081 13%
c i  0.07 51  1 0   0    1    0 98% 0 260020 17076 13%
c i  0.07 51  1 0   0    2    0 98% 0 260020 17071 13%
c i  0.07 51  1 0   0    3    0 98% 0 260020 17069 13%
c i  0.08 51  1 0   1    4    0 98% 0 260020 17067 13%
c i  0.08 51  1 0   1    5    0 98% 0 260020 17065 13%
c i  0.08 51  1 0   1    6    0 98% 0 260020 17063 13%
c i  0.08 51  1 0   2    7    0 98% 0 260020 17061 13%
c i  0.08 51  1 0   2    8    0 98% 0 260020 17059 13%
c i  0.08 51  1 0   2    9    0 98% 0 260020 17042 13%
c i  0.08 51  1 0   3   10    0 98% 0 260020 17037 13%
c i  0.09 51  1 0   3   11    0 98% 0 260020 17032 13%
c i  0.09 51  1 0   3   12    0 98% 0 260020 17027 13%
c i  0.09 51  1 0   4   13    0 98% 0 260020 17025 13%
c i  0.09 51  1 0   4   14    0 98% 0 260020 17018 13%
c i  0.09 51  1 0   4   15    0 98% 0 260020 17013 13%
c i  0.09 51  1 0   5   16    0 98% 0 260020 17011 13%
c i  0.09 51  1 0   5   17    0 98% 0 260020 17009 13%
c i  0.09 51  1 0   5   18    0 98% 0 260020 17007 13%
c 
c  seconds  reductions  redundant  irredundant
c         MB    restarts       trail       variables
c          level   conflicts       glue         remaining
c 
c i  0.09 51  1 0   6   19    0 98% 0 260020 17005 13%
c i  0.09 51  1 0   6   20    0 98% 0 260020 17003 13%
c i  0.09 51  1 0   6   21    0 98% 0 260020 17001 13%
c i  0.09 51  1 0   7   22    0 98% 0 260020 16999 13%
c i  0.09 51  1 0   7   23    0 98% 0 260020 16997 13%
c i  0.09 51  1 0   7   24    0 98% 0 260020 16995 13%
c i  0.10 51  1 0   8   25    0 98% 0 260020 16993 13%
c i  0.10 51  1 0   8   26    0 98% 0 260020 16991 13%
c i  0.10 51  1 0   8   27    0 98% 0 260020 16989 13%
c i  0.10 51  1 0   9   28    0 98% 0 260020 16987 13%
c i  0.10 51  1 0   9   29    0 98% 0 260020 16985 13%
c i  0.10 51  1 0   9   30    0 98% 0 260020 16983 13%
c i  0.10 51  1 0  10   31    0 98% 0 260020 16981 13%
c i  0.10 51  1 0  10   32    0 98% 0 260020 16979 13%
c i  0.10 51  1 0  10   33    0 98% 0 260020 16977 13%
c i  0.10 51  1 0  11   34    0 98% 0 260020 16975 13%
c i  0.10 51  1 0  11   35    0 98% 0 260020 16932 13%
c i  0.10 51  1 0  11   36    0 98% 0 260020 16927 13%
c i  0.10 51  1 0  12   37    0 98% 0 260020 16922 13%
c i  0.10 51  1 0  12   38    0 98% 0 260020 16917 13%
c 
c  seconds  reductions  redundant  irredundant
c         MB    restarts       trail       variables
c          level   conflicts       glue         remaining
c 
c i  0.10 51  1 0  12   39    0 98% 0 260020 16915 13%
c i  0.10 51  1 0  13   40    0 98% 0 260020 16913 13%
c i  0.10 51  1 0  13   41    0 98% 0 260020 16904 13%
c i  0.10 51  1 0  13   42    0 98% 0 260020 16899 13%
... skipped 11822 lines ...
v 128272 -128273 -128274 128275 128276 -128277 128278 128279 128280 128281
v -128282 128283 -128284 -128285 128286 -128287 128288 -128289 128290 -128291
v -128292 128293 128294 -128295 -128296 128297 128298 -128299 128300 128301
v -128302 -128303 128304 -128305 128306 128307 -128308 128309 -128310 -128311
v -128312 128313 -128314 128315 128316 -128317 128318 -128319 128320 -128321
v 128322 -128323 -128324 -128325 -128326 -128327 128328 -128329 -128330 128331
v 128332 -128333 -128334 128335 -128336 -128337 -128338 128339 128340 -128341
v -128342 128343 -128344 -128345 -128346 128347 128348 -128349 -128350 128351
v -128352 -128353 -128354 128355 128356 -128357 -128358 128359 -128360 -128361
v -128362 128363 128364 -128365 -128366 128367 -128368 -128369 -128370 128371
v 128372 -128373 -128374 128375 -128376 -128377 -128378 128379 128380 -128381
v -128382 128383 -128384 -128385 -128386 128387 128388 -128389 -128390 -128391
v -128392 128393 -128394 -128395 128396 128397 -128398 128399 -128400 -128401
v -128402 128403 128404 -128405 -128406 128407 -128408 -128409 -128410 128411
v 128412 -128413 -128414 -128415 -128416 128417 -128418 -128419 128420 128421
v -128422 -128423 -128424 128425 -128426 -128427 128428 -128429 128430 -128431
v -128432 128433 -128434 -128435 128436 128437 -128438 -128439 -128440 128441
v -128442 -128443 128444 128445 -128446 128447 -128448 -128449 -128450 128451
v 128452 -128453 -128454 128455 -128456 -128457 -128458 128459 128460 -128461
v -128462 -128463 -128464 128465 -128466 -128467 128468 -128469 128470 128471
v -128472 -128473 -128474 128475 128476 -128477 -128478 -128479 -128480 128481
v -128482 -128483 128484 128485 -128486 -128487 -128488 128489 -128490 -128491
v 128492 -128493 128494 128495 -128496 -128497 -128498 128499 128500 -128501
v -128502 -128503 -128504 128505 -128506 -128507 128508 128509 -128510 128511
v -128512 -128513 -128514 128515 128516 -128517 -128518 -128519 -128520 128521
v -128522 -128523 128524 128525 -128526 -128527 -128528 128529 -128530 -128531
v 128532 128533 -128534 128535 -128536 -128537 -128538 128539 128540 -128541
v -128542 -128543 -128544 128545 -128546 -128547 128548 128549 -128550 128551
v -128552 -128553 -128554 128555 128556 -128557 -128558 -128559 -128560 128561
v -128562 -128563 128564 -128565 128566 128567 -128568 -128569 -128570 128571
v 128572 -128573 -128574 -128575 -128576 128577 -128578 -128579 128580 -128581
v 128582 128583 -128584 -128585 -128586 128587 128588 -128589 -128590 128591
v -128592 -128593 -128594 128595 128596 -128597 -128598 -128599 -128600 128601
v -128602 -128603 128604 -128605 128606 128607 -128608 -128609 -128610 128611
v 128612 -128613 -128614 128615 -128616 -128617 -128618 128619 128620 -128621
v -128622 128623 -128624 -128625 -128626 128627 128628 -128629 -128630 -128631
v -128632 128633 -128634 -128635 128636 128637 -128638 128639 -128640 -128641
v -128642 128643 128644 -128645 -128646 128647 -128648 -128649 -128650 128651
v 128652 -128653 -128654 -128655 -128656 128657 -128658 -128659 128660 128661
v -128662 -128663 -128664 128665 -128666 -128667 128668 128669 -128670 128671
v -128672 -128673 -128674 128675 128676 -128677 -128678 -128679 -128680 128681
v -128682 -128683 128684 128685 -128686 128687 -128688 -128689 -128690 128691
v 128692 -128693 -128694 -128695 -128696 128697 -128698 -128699 128700 -128701
v 128702 128703 -128704 -128705 -128706 128707 128708 -128709 -128710 -128711
v -128712 128713 -128714 -128715 128716 128717 -128718 -128719 -128720 128721
v -128722 -128723 128724 128725 -128726 -128727 -128728 128729 -128730 -128731
v 128732 128733 -128734 -128735 -128736 128737 -128738 -128739 128740 -128741
v 128742 128743 -128744 -128745 -128746 128747 128748 -128749 -128750 -128751
v -128752 128753 -128754 -128755 128756 128757 -128758 128759 -128760 -128761
v -128762 128763 128764 -128765 -128766 -128767 -128768 128769 -128770 -128771
v 128772 128773 -128774 -128775 -128776 128777 -128778 -128779 128780 128781
v -128782 128783 -128784 -128785 -128786 128787 128788 -128789 -128790 128791
v -128792 -128793 -128794 128795 128796 -128797 -128798 -128799 -128800 128801
v -128802 -128803 128804 128805 -128806 -128807 -128808 128809 -128810 -128811
v 128812 128813 -128814 -128815 128816 128817 -128818 -128819 128820 128821
v -128822 -128823 -128824 -128825 128826 128827 128828 -128829 0
c 
c --- [ run-time profiling ] -------------------------------------------------
c 
c process time taken by individual solving procedures
c (percentage relative to process time for solving)
c 
c         0.06  116.29% parse
c         0.05   99.78% search
c         0.04   84.74% unstable
c         0.01   14.99% lucky
c         0.00    0.00% simplify
c   =================================
c         0.05   43.52% solve
c 
c last line shows process time for solving
c (percentage relative to total process time)
c 
c --- [ statistics ] ---------------------------------------------------------
c 
c chronological:                65       100.00 %  of conflicts
c conflicts:                    65      1238.43    per second
c decisions:                   479      9126.24    per second
c fixed:                    113994        88.48 %  of all variables
c learned:                      65       100.00 %  per conflict
c learned_lits:                 65       100.00 %  learned literals
c minimized:                     0         0.00 %  learned literals
c shrunken:                      0         0.00 %  learned literals
c minishrunken:                  0         0.00 %  learned literals
c otfs:                          1         1.54 %  of conflict
c propagations:            1092165        20.81 M  per second
c restarts:                     21         3.10    interval
c strengthened:                  1         0.00 %  of all clauses
c 
c seconds are measured in process time for solving
c 
c --- [ resources ] ----------------------------------------------------------
c 
c total process time since initialization:         0.12    seconds
c total real time since initialization:            0.13    seconds
c maximum resident set size of process:           49.83    MB
c 
c --- [ shutting down ] ------------------------------------------------------
c 
c exit 10
